374851
37,22,15,35,36,67,66,51,3,16,6,52,5,62,45,54,41,63,8,20,46,71,24,65,74,9,26,48,18,28,55,30,53,19,72,49,2,42,69,23,56,57,60,34,27,82,44,50,1,29,59,31,61,79,78,39,25,40,32,75,47,73,10,21,68,77,13,64,7,58,80,14,70,76,81,83,4,17,33,12,38,43,11